(declare-const ch12 Int)
(declare-const ch10 Int)
(declare-const ch0 Int)
(declare-const ch11 Int)
(declare-const ch2 Int)
(declare-const ch1 Int)
(declare-const ch4 Int)
(declare-const ch3 Int)
(declare-const ch6 Int)
(declare-const ch5 Int)
(declare-const ch8 Int)
(declare-const ch7 Int)
(declare-const ch9 Int)

(assert (and (and (and (and (and (and (and (and (and (and (and (and (and (and (and (and (and (and (and (and (and (and (and (and (and (and (and (and (and (and (and (and (and (and (and (and (and (and  ( <  ch0 97)  ( >=  ch0 65))  ( <=  ch0 90))  ( <  ch1 97))  ( >=  ch1 65))  ( <=  ch1 90))  ( <  ch2 97))  ( >=  ch2 65))  ( <=  ch2 90))  ( <  ch3 97))  ( >=  ch3 65))  ( <=  ch3 90))  ( <  ch4 97))  ( >=  ch4 65))  ( <=  ch4 90))  ( <  ch5 97))  ( >=  ch5 65))  ( <=  ch5 90))  ( <  ch6 97))  ( >=  ch6 65))  ( <=  ch6 90))  ( <  ch7 97))  ( >=  ch7 65))  ( <=  ch7 90))  ( <  ch8 97))  ( >=  ch8 65))  ( <=  ch8 90))  ( <  ch9 97))  ( >=  ch9 65))  ( <=  ch9 90))  ( <  ch10 97))  ( >=  ch10 65))  ( <=  ch10 90))  ( <  ch11 97))  ( >=  ch11 65))  ( <=  ch11 90))  ( <  ch12 97))  ( >=  ch12 65))  ( <=  ch12 90)))

(check-sat)
(get-model)